c LUBF gaussoids on n=5
p cnf 80 1720
1 10 -9 0
1 10 -2 0
2 10 -1 0
2 10 -9 0
1 9 -2 0
1 9 -10 0
1 2 -9 -33 0
3 13 -11 0
3 13 -5 0
5 13 -3 0
5 13 -11 0
3 11 -5 0
3 11 -13 0
3 5 -11 -35 0
4 14 -12 0
4 14 -6 0
6 14 -4 0
6 14 -12 0
4 12 -6 0
4 12 -14 0
4 6 -12 -36 0
7 16 -15 0
7 16 -8 0
8 16 -7 0
8 16 -15 0
7 15 -8 0
7 15 -16 0
7 8 -15 -39 0
1 18 -17 0
1 18 -3 0
3 18 -1 0
3 18 -17 0
1 17 -3 0
1 17 -18 0
1 3 -17 -41 0
2 21 -19 0
2 21 -5 0
5 21 -2 0
5 21 -19 0
2 19 -5 0
2 19 -21 0
2 5 -19 -43 0
4 22 -20 0
4 22 -7 0
7 22 -4 0
7 22 -20 0
4 20 -7 0
4 20 -22 0
4 7 -20 -44 0
6 24 -23 0
6 24 -8 0
8 24 -6 0
8 24 -23 0
6 23 -8 0
6 23 -24 0
6 8 -23 -47 0
1 26 -25 0
1 26 -4 0
4 26 -1 0
4 26 -25 0
1 25 -4 0
1 25 -26 0
1 4 -25 -49 0
2 29 -27 0
2 29 -6 0
6 29 -2 0
6 29 -27 0
2 27 -6 0
2 27 -29 0
2 6 -27 -51 0
3 30 -28 0
3 30 -7 0
7 30 -3 0
7 30 -28 0
3 28 -7 0
3 28 -30 0
3 7 -28 -52 0
5 32 -31 0
5 32 -8 0
8 32 -5 0
8 32 -31 0
5 31 -8 0
5 31 -32 0
5 8 -31 -55 0
9 2 -1 0
9 2 -10 0
10 2 -9 0
10 2 -1 0
9 1 -10 0
9 1 -2 0
9 10 -1 -33 0
11 5 -3 0
11 5 -13 0
13 5 -11 0
13 5 -3 0
11 3 -13 0
11 3 -5 0
11 13 -3 -35 0
12 6 -4 0
12 6 -14 0
14 6 -12 0
14 6 -4 0
12 4 -14 0
12 4 -6 0
12 14 -4 -36 0
15 8 -7 0
15 8 -16 0
16 8 -15 0
16 8 -7 0
15 7 -16 0
15 7 -8 0
15 16 -7 -39 0
9 19 -17 0
9 19 -11 0
11 19 -9 0
11 19 -17 0
9 17 -11 0
9 17 -19 0
9 11 -17 -57 0
10 21 -18 0
10 21 -13 0
13 21 -10 0
13 21 -18 0
10 18 -13 0
10 18 -21 0
10 13 -18 -59 0
12 23 -20 0
12 23 -15 0
15 23 -12 0
15 23 -20 0
12 20 -15 0
12 20 -23 0
12 15 -20 -60 0
14 24 -22 0
14 24 -16 0
16 24 -14 0
16 24 -22 0
14 22 -16 0
14 22 -24 0
14 16 -22 -63 0
9 27 -25 0
9 27 -12 0
12 27 -9 0
12 27 -25 0
9 25 -12 0
9 25 -27 0
9 12 -25 -65 0
10 29 -26 0
10 29 -14 0
14 29 -10 0
14 29 -26 0
10 26 -14 0
10 26 -29 0
10 14 -26 -67 0
11 31 -28 0
11 31 -15 0
15 31 -11 0
15 31 -28 0
11 28 -15 0
11 28 -31 0
11 15 -28 -68 0
13 32 -30 0
13 32 -16 0
16 32 -13 0
16 32 -30 0
13 30 -16 0
13 30 -32 0
13 16 -30 -71 0
17 3 -1 0
17 3 -18 0
18 3 -17 0
18 3 -1 0
17 1 -18 0
17 1 -3 0
17 18 -1 -41 0
19 5 -2 0
19 5 -21 0
21 5 -19 0
21 5 -2 0
19 2 -21 0
19 2 -5 0
19 21 -2 -43 0
20 7 -4 0
20 7 -22 0
22 7 -20 0
22 7 -4 0
20 4 -22 0
20 4 -7 0
20 22 -4 -44 0
23 8 -6 0
23 8 -24 0
24 8 -23 0
24 8 -6 0
23 6 -24 0
23 6 -8 0
23 24 -6 -47 0
17 11 -9 0
17 11 -19 0
19 11 -17 0
19 11 -9 0
17 9 -19 0
17 9 -11 0
17 19 -9 -57 0
18 13 -10 0
18 13 -21 0
21 13 -18 0
21 13 -10 0
18 10 -21 0
18 10 -13 0
18 21 -10 -59 0
20 15 -12 0
20 15 -23 0
23 15 -20 0
23 15 -12 0
20 12 -23 0
20 12 -15 0
20 23 -12 -60 0
22 16 -14 0
22 16 -24 0
24 16 -22 0
24 16 -14 0
22 14 -24 0
22 14 -16 0
22 24 -14 -63 0
17 28 -25 0
17 28 -20 0
20 28 -17 0
20 28 -25 0
17 25 -20 0
17 25 -28 0
17 20 -25 -73 0
18 30 -26 0
18 30 -22 0
22 30 -18 0
22 30 -26 0
18 26 -22 0
18 26 -30 0
18 22 -26 -75 0
19 31 -27 0
19 31 -23 0
23 31 -19 0
23 31 -27 0
19 27 -23 0
19 27 -31 0
19 23 -27 -76 0
21 32 -29 0
21 32 -24 0
24 32 -21 0
24 32 -29 0
21 29 -24 0
21 29 -32 0
21 24 -29 -79 0
25 4 -1 0
25 4 -26 0
26 4 -25 0
26 4 -1 0
25 1 -26 0
25 1 -4 0
25 26 -1 -49 0
27 6 -2 0
27 6 -29 0
29 6 -27 0
29 6 -2 0
27 2 -29 0
27 2 -6 0
27 29 -2 -51 0
28 7 -3 0
28 7 -30 0
30 7 -28 0
30 7 -3 0
28 3 -30 0
28 3 -7 0
28 30 -3 -52 0
31 8 -5 0
31 8 -32 0
32 8 -31 0
32 8 -5 0
31 5 -32 0
31 5 -8 0
31 32 -5 -55 0
25 12 -9 0
25 12 -27 0
27 12 -25 0
27 12 -9 0
25 9 -27 0
25 9 -12 0
25 27 -9 -65 0
26 14 -10 0
26 14 -29 0
29 14 -26 0
29 14 -10 0
26 10 -29 0
26 10 -14 0
26 29 -10 -67 0
28 15 -11 0
28 15 -31 0
31 15 -28 0
31 15 -11 0
28 11 -31 0
28 11 -15 0
28 31 -11 -68 0
30 16 -13 0
30 16 -32 0
32 16 -30 0
32 16 -13 0
30 13 -32 0
30 13 -16 0
30 32 -13 -71 0
25 20 -17 0
25 20 -28 0
28 20 -25 0
28 20 -17 0
25 17 -28 0
25 17 -20 0
25 28 -17 -73 0
26 22 -18 0
26 22 -30 0
30 22 -26 0
30 22 -18 0
26 18 -30 0
26 18 -22 0
26 30 -18 -75 0
27 23 -19 0
27 23 -31 0
31 23 -27 0
31 23 -19 0
27 19 -31 0
27 19 -23 0
27 31 -19 -76 0
29 24 -21 0
29 24 -32 0
32 24 -29 0
32 24 -21 0
29 21 -32 0
29 21 -24 0
29 32 -21 -79 0
1 34 -33 0
1 34 -2 0
2 34 -1 0
2 34 -33 0
1 33 -2 0
1 33 -34 0
1 2 -33 -9 0
3 37 -35 0
3 37 -5 0
5 37 -3 0
5 37 -35 0
3 35 -5 0
3 35 -37 0
3 5 -35 -11 0
4 38 -36 0
4 38 -6 0
6 38 -4 0
6 38 -36 0
4 36 -6 0
4 36 -38 0
4 6 -36 -12 0
7 40 -39 0
7 40 -8 0
8 40 -7 0
8 40 -39 0
7 39 -8 0
7 39 -40 0
7 8 -39 -15 0
1 42 -41 0
1 42 -3 0
3 42 -1 0
3 42 -41 0
1 41 -3 0
1 41 -42 0
1 3 -41 -17 0
2 45 -43 0
2 45 -5 0
5 45 -2 0
5 45 -43 0
2 43 -5 0
2 43 -45 0
2 5 -43 -19 0
4 46 -44 0
4 46 -7 0
7 46 -4 0
7 46 -44 0
4 44 -7 0
4 44 -46 0
4 7 -44 -20 0
6 48 -47 0
6 48 -8 0
8 48 -6 0
8 48 -47 0
6 47 -8 0
6 47 -48 0
6 8 -47 -23 0
1 50 -49 0
1 50 -4 0
4 50 -1 0
4 50 -49 0
1 49 -4 0
1 49 -50 0
1 4 -49 -25 0
2 53 -51 0
2 53 -6 0
6 53 -2 0
6 53 -51 0
2 51 -6 0
2 51 -53 0
2 6 -51 -27 0
3 54 -52 0
3 54 -7 0
7 54 -3 0
7 54 -52 0
3 52 -7 0
3 52 -54 0
3 7 -52 -28 0
5 56 -55 0
5 56 -8 0
8 56 -5 0
8 56 -55 0
5 55 -8 0
5 55 -56 0
5 8 -55 -31 0
33 2 -1 0
33 2 -34 0
34 2 -33 0
34 2 -1 0
33 1 -34 0
33 1 -2 0
33 34 -1 -9 0
35 5 -3 0
35 5 -37 0
37 5 -35 0
37 5 -3 0
35 3 -37 0
35 3 -5 0
35 37 -3 -11 0
36 6 -4 0
36 6 -38 0
38 6 -36 0
38 6 -4 0
36 4 -38 0
36 4 -6 0
36 38 -4 -12 0
39 8 -7 0
39 8 -40 0
40 8 -39 0
40 8 -7 0
39 7 -40 0
39 7 -8 0
39 40 -7 -15 0
33 43 -41 0
33 43 -35 0
35 43 -33 0
35 43 -41 0
33 41 -35 0
33 41 -43 0
33 35 -41 -57 0
34 45 -42 0
34 45 -37 0
37 45 -34 0
37 45 -42 0
34 42 -37 0
34 42 -45 0
34 37 -42 -58 0
36 47 -44 0
36 47 -39 0
39 47 -36 0
39 47 -44 0
36 44 -39 0
36 44 -47 0
36 39 -44 -60 0
38 48 -46 0
38 48 -40 0
40 48 -38 0
40 48 -46 0
38 46 -40 0
38 46 -48 0
38 40 -46 -62 0
33 51 -49 0
33 51 -36 0
36 51 -33 0
36 51 -49 0
33 49 -36 0
33 49 -51 0
33 36 -49 -65 0
34 53 -50 0
34 53 -38 0
38 53 -34 0
38 53 -50 0
34 50 -38 0
34 50 -53 0
34 38 -50 -66 0
35 55 -52 0
35 55 -39 0
39 55 -35 0
39 55 -52 0
35 52 -39 0
35 52 -55 0
35 39 -52 -68 0
37 56 -54 0
37 56 -40 0
40 56 -37 0
40 56 -54 0
37 54 -40 0
37 54 -56 0
37 40 -54 -70 0
41 3 -1 0
41 3 -42 0
42 3 -41 0
42 3 -1 0
41 1 -42 0
41 1 -3 0
41 42 -1 -17 0
43 5 -2 0
43 5 -45 0
45 5 -43 0
45 5 -2 0
43 2 -45 0
43 2 -5 0
43 45 -2 -19 0
44 7 -4 0
44 7 -46 0
46 7 -44 0
46 7 -4 0
44 4 -46 0
44 4 -7 0
44 46 -4 -20 0
47 8 -6 0
47 8 -48 0
48 8 -47 0
48 8 -6 0
47 6 -48 0
47 6 -8 0
47 48 -6 -23 0
41 35 -33 0
41 35 -43 0
43 35 -41 0
43 35 -33 0
41 33 -43 0
41 33 -35 0
41 43 -33 -57 0
42 37 -34 0
42 37 -45 0
45 37 -42 0
45 37 -34 0
42 34 -45 0
42 34 -37 0
42 45 -34 -58 0
44 39 -36 0
44 39 -47 0
47 39 -44 0
47 39 -36 0
44 36 -47 0
44 36 -39 0
44 47 -36 -60 0
46 40 -38 0
46 40 -48 0
48 40 -46 0
48 40 -38 0
46 38 -48 0
46 38 -40 0
46 48 -38 -62 0
41 52 -49 0
41 52 -44 0
44 52 -41 0
44 52 -49 0
41 49 -44 0
41 49 -52 0
41 44 -49 -73 0
42 54 -50 0
42 54 -46 0
46 54 -42 0
46 54 -50 0
42 50 -46 0
42 50 -54 0
42 46 -50 -74 0
43 55 -51 0
43 55 -47 0
47 55 -43 0
47 55 -51 0
43 51 -47 0
43 51 -55 0
43 47 -51 -76 0
45 56 -53 0
45 56 -48 0
48 56 -45 0
48 56 -53 0
45 53 -48 0
45 53 -56 0
45 48 -53 -78 0
49 4 -1 0
49 4 -50 0
50 4 -49 0
50 4 -1 0
49 1 -50 0
49 1 -4 0
49 50 -1 -25 0
51 6 -2 0
51 6 -53 0
53 6 -51 0
53 6 -2 0
51 2 -53 0
51 2 -6 0
51 53 -2 -27 0
52 7 -3 0
52 7 -54 0
54 7 -52 0
54 7 -3 0
52 3 -54 0
52 3 -7 0
52 54 -3 -28 0
55 8 -5 0
55 8 -56 0
56 8 -55 0
56 8 -5 0
55 5 -56 0
55 5 -8 0
55 56 -5 -31 0
49 36 -33 0
49 36 -51 0
51 36 -49 0
51 36 -33 0
49 33 -51 0
49 33 -36 0
49 51 -33 -65 0
50 38 -34 0
50 38 -53 0
53 38 -50 0
53 38 -34 0
50 34 -53 0
50 34 -38 0
50 53 -34 -66 0
52 39 -35 0
52 39 -55 0
55 39 -52 0
55 39 -35 0
52 35 -55 0
52 35 -39 0
52 55 -35 -68 0
54 40 -37 0
54 40 -56 0
56 40 -54 0
56 40 -37 0
54 37 -56 0
54 37 -40 0
54 56 -37 -70 0
49 44 -41 0
49 44 -52 0
52 44 -49 0
52 44 -41 0
49 41 -52 0
49 41 -44 0
49 52 -41 -73 0
50 46 -42 0
50 46 -54 0
54 46 -50 0
54 46 -42 0
50 42 -54 0
50 42 -46 0
50 54 -42 -74 0
51 47 -43 0
51 47 -55 0
55 47 -51 0
55 47 -43 0
51 43 -55 0
51 43 -47 0
51 55 -43 -76 0
53 48 -45 0
53 48 -56 0
56 48 -53 0
56 48 -45 0
53 45 -56 0
53 45 -48 0
53 56 -45 -78 0
9 34 -33 0
9 34 -10 0
10 34 -9 0
10 34 -33 0
9 33 -10 0
9 33 -34 0
9 10 -33 -1 0
11 37 -35 0
11 37 -13 0
13 37 -11 0
13 37 -35 0
11 35 -13 0
11 35 -37 0
11 13 -35 -3 0
12 38 -36 0
12 38 -14 0
14 38 -12 0
14 38 -36 0
12 36 -14 0
12 36 -38 0
12 14 -36 -4 0
15 40 -39 0
15 40 -16 0
16 40 -15 0
16 40 -39 0
15 39 -16 0
15 39 -40 0
15 16 -39 -7 0
9 58 -57 0
9 58 -11 0
11 58 -9 0
11 58 -57 0
9 57 -11 0
9 57 -58 0
9 11 -57 -17 0
10 61 -59 0
10 61 -13 0
13 61 -10 0
13 61 -59 0
10 59 -13 0
10 59 -61 0
10 13 -59 -18 0
12 62 -60 0
12 62 -15 0
15 62 -12 0
15 62 -60 0
12 60 -15 0
12 60 -62 0
12 15 -60 -20 0
14 64 -63 0
14 64 -16 0
16 64 -14 0
16 64 -63 0
14 63 -16 0
14 63 -64 0
14 16 -63 -22 0
9 66 -65 0
9 66 -12 0
12 66 -9 0
12 66 -65 0
9 65 -12 0
9 65 -66 0
9 12 -65 -25 0
10 69 -67 0
10 69 -14 0
14 69 -10 0
14 69 -67 0
10 67 -14 0
10 67 -69 0
10 14 -67 -26 0
11 70 -68 0
11 70 -15 0
15 70 -11 0
15 70 -68 0
11 68 -15 0
11 68 -70 0
11 15 -68 -28 0
13 72 -71 0
13 72 -16 0
16 72 -13 0
16 72 -71 0
13 71 -16 0
13 71 -72 0
13 16 -71 -30 0
33 10 -9 0
33 10 -34 0
34 10 -33 0
34 10 -9 0
33 9 -34 0
33 9 -10 0
33 34 -9 -1 0
35 13 -11 0
35 13 -37 0
37 13 -35 0
37 13 -11 0
35 11 -37 0
35 11 -13 0
35 37 -11 -3 0
36 14 -12 0
36 14 -38 0
38 14 -36 0
38 14 -12 0
36 12 -38 0
36 12 -14 0
36 38 -12 -4 0
39 16 -15 0
39 16 -40 0
40 16 -39 0
40 16 -15 0
39 15 -40 0
39 15 -16 0
39 40 -15 -7 0
33 59 -57 0
33 59 -35 0
35 59 -33 0
35 59 -57 0
33 57 -35 0
33 57 -59 0
33 35 -57 -41 0
34 61 -58 0
34 61 -37 0
37 61 -34 0
37 61 -58 0
34 58 -37 0
34 58 -61 0
34 37 -58 -42 0
36 63 -60 0
36 63 -39 0
39 63 -36 0
39 63 -60 0
36 60 -39 0
36 60 -63 0
36 39 -60 -44 0
38 64 -62 0
38 64 -40 0
40 64 -38 0
40 64 -62 0
38 62 -40 0
38 62 -64 0
38 40 -62 -46 0
33 67 -65 0
33 67 -36 0
36 67 -33 0
36 67 -65 0
33 65 -36 0
33 65 -67 0
33 36 -65 -49 0
34 69 -66 0
34 69 -38 0
38 69 -34 0
38 69 -66 0
34 66 -38 0
34 66 -69 0
34 38 -66 -50 0
35 71 -68 0
35 71 -39 0
39 71 -35 0
39 71 -68 0
35 68 -39 0
35 68 -71 0
35 39 -68 -52 0
37 72 -70 0
37 72 -40 0
40 72 -37 0
40 72 -70 0
37 70 -40 0
37 70 -72 0
37 40 -70 -54 0
57 11 -9 0
57 11 -58 0
58 11 -57 0
58 11 -9 0
57 9 -58 0
57 9 -11 0
57 58 -9 -17 0
59 13 -10 0
59 13 -61 0
61 13 -59 0
61 13 -10 0
59 10 -61 0
59 10 -13 0
59 61 -10 -18 0
60 15 -12 0
60 15 -62 0
62 15 -60 0
62 15 -12 0
60 12 -62 0
60 12 -15 0
60 62 -12 -20 0
63 16 -14 0
63 16 -64 0
64 16 -63 0
64 16 -14 0
63 14 -64 0
63 14 -16 0
63 64 -14 -22 0
57 35 -33 0
57 35 -59 0
59 35 -57 0
59 35 -33 0
57 33 -59 0
57 33 -35 0
57 59 -33 -41 0
58 37 -34 0
58 37 -61 0
61 37 -58 0
61 37 -34 0
58 34 -61 0
58 34 -37 0
58 61 -34 -42 0
60 39 -36 0
60 39 -63 0
63 39 -60 0
63 39 -36 0
60 36 -63 0
60 36 -39 0
60 63 -36 -44 0
62 40 -38 0
62 40 -64 0
64 40 -62 0
64 40 -38 0
62 38 -64 0
62 38 -40 0
62 64 -38 -46 0
57 68 -65 0
57 68 -60 0
60 68 -57 0
60 68 -65 0
57 65 -60 0
57 65 -68 0
57 60 -65 -73 0
58 70 -66 0
58 70 -62 0
62 70 -58 0
62 70 -66 0
58 66 -62 0
58 66 -70 0
58 62 -66 -74 0
59 71 -67 0
59 71 -63 0
63 71 -59 0
63 71 -67 0
59 67 -63 0
59 67 -71 0
59 63 -67 -75 0
61 72 -69 0
61 72 -64 0
64 72 -61 0
64 72 -69 0
61 69 -64 0
61 69 -72 0
61 64 -69 -77 0
65 12 -9 0
65 12 -66 0
66 12 -65 0
66 12 -9 0
65 9 -66 0
65 9 -12 0
65 66 -9 -25 0
67 14 -10 0
67 14 -69 0
69 14 -67 0
69 14 -10 0
67 10 -69 0
67 10 -14 0
67 69 -10 -26 0
68 15 -11 0
68 15 -70 0
70 15 -68 0
70 15 -11 0
68 11 -70 0
68 11 -15 0
68 70 -11 -28 0
71 16 -13 0
71 16 -72 0
72 16 -71 0
72 16 -13 0
71 13 -72 0
71 13 -16 0
71 72 -13 -30 0
65 36 -33 0
65 36 -67 0
67 36 -65 0
67 36 -33 0
65 33 -67 0
65 33 -36 0
65 67 -33 -49 0
66 38 -34 0
66 38 -69 0
69 38 -66 0
69 38 -34 0
66 34 -69 0
66 34 -38 0
66 69 -34 -50 0
68 39 -35 0
68 39 -71 0
71 39 -68 0
71 39 -35 0
68 35 -71 0
68 35 -39 0
68 71 -35 -52 0
70 40 -37 0
70 40 -72 0
72 40 -70 0
72 40 -37 0
70 37 -72 0
70 37 -40 0
70 72 -37 -54 0
65 60 -57 0
65 60 -68 0
68 60 -65 0
68 60 -57 0
65 57 -68 0
65 57 -60 0
65 68 -57 -73 0
66 62 -58 0
66 62 -70 0
70 62 -66 0
70 62 -58 0
66 58 -70 0
66 58 -62 0
66 70 -58 -74 0
67 63 -59 0
67 63 -71 0
71 63 -67 0
71 63 -59 0
67 59 -71 0
67 59 -63 0
67 71 -59 -75 0
69 64 -61 0
69 64 -72 0
72 64 -69 0
72 64 -61 0
69 61 -72 0
69 61 -64 0
69 72 -61 -77 0
17 42 -41 0
17 42 -18 0
18 42 -17 0
18 42 -41 0
17 41 -18 0
17 41 -42 0
17 18 -41 -1 0
19 45 -43 0
19 45 -21 0
21 45 -19 0
21 45 -43 0
19 43 -21 0
19 43 -45 0
19 21 -43 -2 0
20 46 -44 0
20 46 -22 0
22 46 -20 0
22 46 -44 0
20 44 -22 0
20 44 -46 0
20 22 -44 -4 0
23 48 -47 0
23 48 -24 0
24 48 -23 0
24 48 -47 0
23 47 -24 0
23 47 -48 0
23 24 -47 -6 0
17 58 -57 0
17 58 -19 0
19 58 -17 0
19 58 -57 0
17 57 -19 0
17 57 -58 0
17 19 -57 -9 0
18 61 -59 0
18 61 -21 0
21 61 -18 0
21 61 -59 0
18 59 -21 0
18 59 -61 0
18 21 -59 -10 0
20 62 -60 0
20 62 -23 0
23 62 -20 0
23 62 -60 0
20 60 -23 0
20 60 -62 0
20 23 -60 -12 0
22 64 -63 0
22 64 -24 0
24 64 -22 0
24 64 -63 0
22 63 -24 0
22 63 -64 0
22 24 -63 -14 0
17 74 -73 0
17 74 -20 0
20 74 -17 0
20 74 -73 0
17 73 -20 0
17 73 -74 0
17 20 -73 -25 0
18 77 -75 0
18 77 -22 0
22 77 -18 0
22 77 -75 0
18 75 -22 0
18 75 -77 0
18 22 -75 -26 0
19 78 -76 0
19 78 -23 0
23 78 -19 0
23 78 -76 0
19 76 -23 0
19 76 -78 0
19 23 -76 -27 0
21 80 -79 0
21 80 -24 0
24 80 -21 0
24 80 -79 0
21 79 -24 0
21 79 -80 0
21 24 -79 -29 0
41 18 -17 0
41 18 -42 0
42 18 -41 0
42 18 -17 0
41 17 -42 0
41 17 -18 0
41 42 -17 -1 0
43 21 -19 0
43 21 -45 0
45 21 -43 0
45 21 -19 0
43 19 -45 0
43 19 -21 0
43 45 -19 -2 0
44 22 -20 0
44 22 -46 0
46 22 -44 0
46 22 -20 0
44 20 -46 0
44 20 -22 0
44 46 -20 -4 0
47 24 -23 0
47 24 -48 0
48 24 -47 0
48 24 -23 0
47 23 -48 0
47 23 -24 0
47 48 -23 -6 0
41 59 -57 0
41 59 -43 0
43 59 -41 0
43 59 -57 0
41 57 -43 0
41 57 -59 0
41 43 -57 -33 0
42 61 -58 0
42 61 -45 0
45 61 -42 0
45 61 -58 0
42 58 -45 0
42 58 -61 0
42 45 -58 -34 0
44 63 -60 0
44 63 -47 0
47 63 -44 0
47 63 -60 0
44 60 -47 0
44 60 -63 0
44 47 -60 -36 0
46 64 -62 0
46 64 -48 0
48 64 -46 0
48 64 -62 0
46 62 -48 0
46 62 -64 0
46 48 -62 -38 0
41 75 -73 0
41 75 -44 0
44 75 -41 0
44 75 -73 0
41 73 -44 0
41 73 -75 0
41 44 -73 -49 0
42 77 -74 0
42 77 -46 0
46 77 -42 0
46 77 -74 0
42 74 -46 0
42 74 -77 0
42 46 -74 -50 0
43 79 -76 0
43 79 -47 0
47 79 -43 0
47 79 -76 0
43 76 -47 0
43 76 -79 0
43 47 -76 -51 0
45 80 -78 0
45 80 -48 0
48 80 -45 0
48 80 -78 0
45 78 -48 0
45 78 -80 0
45 48 -78 -53 0
57 19 -17 0
57 19 -58 0
58 19 -57 0
58 19 -17 0
57 17 -58 0
57 17 -19 0
57 58 -17 -9 0
59 21 -18 0
59 21 -61 0
61 21 -59 0
61 21 -18 0
59 18 -61 0
59 18 -21 0
59 61 -18 -10 0
60 23 -20 0
60 23 -62 0
62 23 -60 0
62 23 -20 0
60 20 -62 0
60 20 -23 0
60 62 -20 -12 0
63 24 -22 0
63 24 -64 0
64 24 -63 0
64 24 -22 0
63 22 -64 0
63 22 -24 0
63 64 -22 -14 0
57 43 -41 0
57 43 -59 0
59 43 -57 0
59 43 -41 0
57 41 -59 0
57 41 -43 0
57 59 -41 -33 0
58 45 -42 0
58 45 -61 0
61 45 -58 0
61 45 -42 0
58 42 -61 0
58 42 -45 0
58 61 -42 -34 0
60 47 -44 0
60 47 -63 0
63 47 -60 0
63 47 -44 0
60 44 -63 0
60 44 -47 0
60 63 -44 -36 0
62 48 -46 0
62 48 -64 0
64 48 -62 0
64 48 -46 0
62 46 -64 0
62 46 -48 0
62 64 -46 -38 0
57 76 -73 0
57 76 -60 0
60 76 -57 0
60 76 -73 0
57 73 -60 0
57 73 -76 0
57 60 -73 -65 0
58 78 -74 0
58 78 -62 0
62 78 -58 0
62 78 -74 0
58 74 -62 0
58 74 -78 0
58 62 -74 -66 0
59 79 -75 0
59 79 -63 0
63 79 -59 0
63 79 -75 0
59 75 -63 0
59 75 -79 0
59 63 -75 -67 0
61 80 -77 0
61 80 -64 0
64 80 -61 0
64 80 -77 0
61 77 -64 0
61 77 -80 0
61 64 -77 -69 0
73 20 -17 0
73 20 -74 0
74 20 -73 0
74 20 -17 0
73 17 -74 0
73 17 -20 0
73 74 -17 -25 0
75 22 -18 0
75 22 -77 0
77 22 -75 0
77 22 -18 0
75 18 -77 0
75 18 -22 0
75 77 -18 -26 0
76 23 -19 0
76 23 -78 0
78 23 -76 0
78 23 -19 0
76 19 -78 0
76 19 -23 0
76 78 -19 -27 0
79 24 -21 0
79 24 -80 0
80 24 -79 0
80 24 -21 0
79 21 -80 0
79 21 -24 0
79 80 -21 -29 0
73 44 -41 0
73 44 -75 0
75 44 -73 0
75 44 -41 0
73 41 -75 0
73 41 -44 0
73 75 -41 -49 0
74 46 -42 0
74 46 -77 0
77 46 -74 0
77 46 -42 0
74 42 -77 0
74 42 -46 0
74 77 -42 -50 0
76 47 -43 0
76 47 -79 0
79 47 -76 0
79 47 -43 0
76 43 -79 0
76 43 -47 0
76 79 -43 -51 0
78 48 -45 0
78 48 -80 0
80 48 -78 0
80 48 -45 0
78 45 -80 0
78 45 -48 0
78 80 -45 -53 0
73 60 -57 0
73 60 -76 0
76 60 -73 0
76 60 -57 0
73 57 -76 0
73 57 -60 0
73 76 -57 -65 0
74 62 -58 0
74 62 -78 0
78 62 -74 0
78 62 -58 0
74 58 -78 0
74 58 -62 0
74 78 -58 -66 0
75 63 -59 0
75 63 -79 0
79 63 -75 0
79 63 -59 0
75 59 -79 0
75 59 -63 0
75 79 -59 -67 0
77 64 -61 0
77 64 -80 0
80 64 -77 0
80 64 -61 0
77 61 -80 0
77 61 -64 0
77 80 -61 -69 0
25 50 -49 0
25 50 -26 0
26 50 -25 0
26 50 -49 0
25 49 -26 0
25 49 -50 0
25 26 -49 -1 0
27 53 -51 0
27 53 -29 0
29 53 -27 0
29 53 -51 0
27 51 -29 0
27 51 -53 0
27 29 -51 -2 0
28 54 -52 0
28 54 -30 0
30 54 -28 0
30 54 -52 0
28 52 -30 0
28 52 -54 0
28 30 -52 -3 0
31 56 -55 0
31 56 -32 0
32 56 -31 0
32 56 -55 0
31 55 -32 0
31 55 -56 0
31 32 -55 -5 0
25 66 -65 0
25 66 -27 0
27 66 -25 0
27 66 -65 0
25 65 -27 0
25 65 -66 0
25 27 -65 -9 0
26 69 -67 0
26 69 -29 0
29 69 -26 0
29 69 -67 0
26 67 -29 0
26 67 -69 0
26 29 -67 -10 0
28 70 -68 0
28 70 -31 0
31 70 -28 0
31 70 -68 0
28 68 -31 0
28 68 -70 0
28 31 -68 -11 0
30 72 -71 0
30 72 -32 0
32 72 -30 0
32 72 -71 0
30 71 -32 0
30 71 -72 0
30 32 -71 -13 0
25 74 -73 0
25 74 -28 0
28 74 -25 0
28 74 -73 0
25 73 -28 0
25 73 -74 0
25 28 -73 -17 0
26 77 -75 0
26 77 -30 0
30 77 -26 0
30 77 -75 0
26 75 -30 0
26 75 -77 0
26 30 -75 -18 0
27 78 -76 0
27 78 -31 0
31 78 -27 0
31 78 -76 0
27 76 -31 0
27 76 -78 0
27 31 -76 -19 0
29 80 -79 0
29 80 -32 0
32 80 -29 0
32 80 -79 0
29 79 -32 0
29 79 -80 0
29 32 -79 -21 0
49 26 -25 0
49 26 -50 0
50 26 -49 0
50 26 -25 0
49 25 -50 0
49 25 -26 0
49 50 -25 -1 0
51 29 -27 0
51 29 -53 0
53 29 -51 0
53 29 -27 0
51 27 -53 0
51 27 -29 0
51 53 -27 -2 0
52 30 -28 0
52 30 -54 0
54 30 -52 0
54 30 -28 0
52 28 -54 0
52 28 -30 0
52 54 -28 -3 0
55 32 -31 0
55 32 -56 0
56 32 -55 0
56 32 -31 0
55 31 -56 0
55 31 -32 0
55 56 -31 -5 0
49 67 -65 0
49 67 -51 0
51 67 -49 0
51 67 -65 0
49 65 -51 0
49 65 -67 0
49 51 -65 -33 0
50 69 -66 0
50 69 -53 0
53 69 -50 0
53 69 -66 0
50 66 -53 0
50 66 -69 0
50 53 -66 -34 0
52 71 -68 0
52 71 -55 0
55 71 -52 0
55 71 -68 0
52 68 -55 0
52 68 -71 0
52 55 -68 -35 0
54 72 -70 0
54 72 -56 0
56 72 -54 0
56 72 -70 0
54 70 -56 0
54 70 -72 0
54 56 -70 -37 0
49 75 -73 0
49 75 -52 0
52 75 -49 0
52 75 -73 0
49 73 -52 0
49 73 -75 0
49 52 -73 -41 0
50 77 -74 0
50 77 -54 0
54 77 -50 0
54 77 -74 0
50 74 -54 0
50 74 -77 0
50 54 -74 -42 0
51 79 -76 0
51 79 -55 0
55 79 -51 0
55 79 -76 0
51 76 -55 0
51 76 -79 0
51 55 -76 -43 0
53 80 -78 0
53 80 -56 0
56 80 -53 0
56 80 -78 0
53 78 -56 0
53 78 -80 0
53 56 -78 -45 0
65 27 -25 0
65 27 -66 0
66 27 -65 0
66 27 -25 0
65 25 -66 0
65 25 -27 0
65 66 -25 -9 0
67 29 -26 0
67 29 -69 0
69 29 -67 0
69 29 -26 0
67 26 -69 0
67 26 -29 0
67 69 -26 -10 0
68 31 -28 0
68 31 -70 0
70 31 -68 0
70 31 -28 0
68 28 -70 0
68 28 -31 0
68 70 -28 -11 0
71 32 -30 0
71 32 -72 0
72 32 -71 0
72 32 -30 0
71 30 -72 0
71 30 -32 0
71 72 -30 -13 0
65 51 -49 0
65 51 -67 0
67 51 -65 0
67 51 -49 0
65 49 -67 0
65 49 -51 0
65 67 -49 -33 0
66 53 -50 0
66 53 -69 0
69 53 -66 0
69 53 -50 0
66 50 -69 0
66 50 -53 0
66 69 -50 -34 0
68 55 -52 0
68 55 -71 0
71 55 -68 0
71 55 -52 0
68 52 -71 0
68 52 -55 0
68 71 -52 -35 0
70 56 -54 0
70 56 -72 0
72 56 -70 0
72 56 -54 0
70 54 -72 0
70 54 -56 0
70 72 -54 -37 0
65 76 -73 0
65 76 -68 0
68 76 -65 0
68 76 -73 0
65 73 -68 0
65 73 -76 0
65 68 -73 -57 0
66 78 -74 0
66 78 -70 0
70 78 -66 0
70 78 -74 0
66 74 -70 0
66 74 -78 0
66 70 -74 -58 0
67 79 -75 0
67 79 -71 0
71 79 -67 0
71 79 -75 0
67 75 -71 0
67 75 -79 0
67 71 -75 -59 0
69 80 -77 0
69 80 -72 0
72 80 -69 0
72 80 -77 0
69 77 -72 0
69 77 -80 0
69 72 -77 -61 0
73 28 -25 0
73 28 -74 0
74 28 -73 0
74 28 -25 0
73 25 -74 0
73 25 -28 0
73 74 -25 -17 0
75 30 -26 0
75 30 -77 0
77 30 -75 0
77 30 -26 0
75 26 -77 0
75 26 -30 0
75 77 -26 -18 0
76 31 -27 0
76 31 -78 0
78 31 -76 0
78 31 -27 0
76 27 -78 0
76 27 -31 0
76 78 -27 -19 0
79 32 -29 0
79 32 -80 0
80 32 -79 0
80 32 -29 0
79 29 -80 0
79 29 -32 0
79 80 -29 -21 0
73 52 -49 0
73 52 -75 0
75 52 -73 0
75 52 -49 0
73 49 -75 0
73 49 -52 0
73 75 -49 -41 0
74 54 -50 0
74 54 -77 0
77 54 -74 0
77 54 -50 0
74 50 -77 0
74 50 -54 0
74 77 -50 -42 0
76 55 -51 0
76 55 -79 0
79 55 -76 0
79 55 -51 0
76 51 -79 0
76 51 -55 0
76 79 -51 -43 0
78 56 -53 0
78 56 -80 0
80 56 -78 0
80 56 -53 0
78 53 -80 0
78 53 -56 0
78 80 -53 -45 0
73 68 -65 0
73 68 -76 0
76 68 -73 0
76 68 -65 0
73 65 -76 0
73 65 -68 0
73 76 -65 -57 0
74 70 -66 0
74 70 -78 0
78 70 -74 0
78 70 -66 0
74 66 -78 0
74 66 -70 0
74 78 -66 -58 0
75 71 -67 0
75 71 -79 0
79 71 -75 0
79 71 -67 0
75 67 -79 0
75 67 -71 0
75 79 -67 -59 0
77 72 -69 0
77 72 -80 0
80 72 -77 0
80 72 -69 0
77 69 -80 0
77 69 -72 0
77 80 -69 -61 0
-1 -2 -9 -10 -33 -34 0
-3 -5 -11 -13 -35 -37 0
-4 -6 -12 -14 -36 -38 0
-7 -8 -15 -16 -39 -40 0
-1 -3 -17 -18 -41 -42 0
-2 -5 -19 -21 -43 -45 0
-4 -7 -20 -22 -44 -46 0
-6 -8 -23 -24 -47 -48 0
-1 -4 -25 -26 -49 -50 0
-2 -6 -27 -29 -51 -53 0
-3 -7 -28 -30 -52 -54 0
-5 -8 -31 -32 -55 -56 0
-9 -11 -17 -19 -57 -58 0
-10 -13 -18 -21 -59 -61 0
-12 -15 -20 -23 -60 -62 0
-14 -16 -22 -24 -63 -64 0
-9 -12 -25 -27 -65 -66 0
-10 -14 -26 -29 -67 -69 0
-11 -15 -28 -31 -68 -70 0
-13 -16 -30 -32 -71 -72 0
-17 -20 -25 -28 -73 -74 0
-18 -22 -26 -30 -75 -77 0
-19 -23 -27 -31 -76 -78 0
-21 -24 -29 -32 -79 -80 0
-33 -35 -41 -43 -57 -59 0
-34 -37 -42 -45 -58 -61 0
-36 -39 -44 -47 -60 -63 0
-38 -40 -46 -48 -62 -64 0
-33 -36 -49 -51 -65 -67 0
-34 -38 -50 -53 -66 -69 0
-35 -39 -52 -55 -68 -71 0
-37 -40 -54 -56 -70 -72 0
-41 -44 -49 -52 -73 -75 0
-42 -46 -50 -54 -74 -77 0
-43 -47 -51 -55 -76 -79 0
-45 -48 -53 -56 -78 -80 0
-57 -60 -65 -68 -73 -76 0
-58 -62 -66 -70 -74 -78 0
-59 -63 -67 -71 -75 -79 0
-61 -64 -69 -72 -77 -80 0